experiment/data/lkh-res/Vrp-Set-Golden-n421/Vrp-Set-Golden-n421-lkh/0.lkh1.vrp
NAME : 0
COMMENT : CVRP Instance
TYPE : CVRP
DIMENSION : 421
EDGE_WEIGHT_TYPE : EUC_2D
CAPACITY : 200
NODE_COORD_SECTION
1	0	0
2	577	0
3	289	500
4	-288	500
5	-576	0
6	-288	-499
7	289	-499
8	866	500
9	0	1000
10	-865	500
11	-865	-499
12	0	-999
13	866	-499
14	534	75
15	332	425
16	650	-124
17	722	-249
18	794	-374
19	650	125
20	722	250
21	794	375
22	202	500
23	-201	500
24	433	500
25	577	500
26	722	500
27	217	625
28	144	750
29	72	875
30	-331	425
31	-533	75
32	-216	625
33	-143	750
34	-71	875
35	-432	500
36	-576	500
37	-721	500
38	-533	-74
39	-331	-424
40	-649	125
41	-721	250
42	-793	375
43	-649	-124
44	-721	-249
45	-793	-374
46	-201	-499
47	202	-499
48	-432	-499
49	-576	-499
50	-721	-499
51	-216	-624
52	-143	-749
53	-71	-874
54	332	-424
55	534	-74
56	217	-624
57	144	-749
58	72	-874
59	433	-499
60	577	-499
61	722	-499
62	722	0
63	361	625
64	-360	625
65	-721	0
66	-360	-624
67	361	-624
68	1083	625
69	0	1250
70	-1082	625
71	-1082	-624
72	0	-1249
73	1083	-624
74	668	94
75	415	531
76	812	-155
77	902	-312
78	992	-468
79	812	156
80	902	313
81	992	469
82	253	625
83	-252	625
84	541	625
85	722	625
86	902	625
87	271	781
88	180	938
89	90	1094
90	-414	531
91	-667	94
92	-270	781
93	-179	938
94	-89	1094
95	-540	625
96	-721	625
97	-901	625
98	-667	-93
99	-414	-530
100	-811	156
101	-901	313
102	-991	469
103	-811	-155
104	-901	-312
105	-991	-468
106	-252	-624
107	253	-624
108	-540	-624
109	-721	-624
110	-901	-624
111	-270	-780
112	-179	-937
113	-89	-1093
114	415	-530
115	668	-93
116	271	-780
117	180	-937
118	90	-1093
119	541	-624
120	722	-624
121	902	-624
122	902	0
123	451	781
124	-450	781
125	-901	0
126	-450	-780
127	451	-780
128	1353	781
129	0	1563
130	-1352	781
131	-1352	-780
132	0	-1562
133	1353	-780
134	834	117
135	519	664
136	1015	-194
137	1128	-390
138	1240	-585
139	1015	195
140	1128	391
141	1240	586
142	316	781
143	-315	781
144	677	781
145	902	781
146	1128	781
147	338	977
148	226	1172
149	113	1367
150	-518	664
151	-833	117
152	-337	977
153	-225	1172
154	-112	1367
155	-676	781
156	-901	781
157	-1127	781
158	-833	-116
159	-518	-663
160	-1014	195
161	-1127	391
162	-1239	586
163	-1014	-194
164	-1127	-390
165	-1239	-585
166	-315	-780
167	316	-780
168	-676	-780
169	-901	-780
170	-1127	-780
171	-337	-976
172	-225	-1171
173	-112	-1366
174	519	-663
175	834	-116
176	338	-976
177	226	-1171
178	113	-1366
179	677	-780
180	902	-780
181	1128	-780
182	1128	0
183	564	977
184	-563	977
185	-1127	0
186	-563	-976
187	564	-976
188	1691	977
189	0	1953
190	-1690	977
191	-1690	-976
192	0	-1952
193	1691	-976
194	1043	146
195	648	830
196	1269	-243
197	1410	-487
198	1551	-731
199	1269	244
200	1410	488
201	1551	732
202	395	977
203	-394	977
204	846	977
205	1128	977
206	1410	977
207	423	1221
208	282	1465
209	141	1709
210	-647	830
211	-1042	146
212	-422	1221
213	-281	1465
214	-140	1709
215	-845	977
216	-1127	977
217	-1409	977
218	-1042	-145
219	-647	-829
220	-1268	244
221	-1409	488
222	-1550	732
223	-1268	-243
224	-1409	-487
225	-1550	-731
226	-394	-976
227	395	-976
228	-845	-976
229	-1127	-976
230	-1409	-976
231	-422	-1220
232	-281	-1464
233	-140	-1708
234	648	-829
235	1043	-145
236	423	-1220
237	282	-1464
238	141	-1708
239	846	-976
240	1128	-976
241	1410	-976
242	1410	0
243	705	1221
244	-704	1221
245	-1409	0
246	-704	-1220
247	705	-1220
248	2114	1221
249	0	2441
250	-2113	1221
251	-2113	-1220
252	0	-2440
253	2114	-1220
254	1304	183
255	810	1038
256	1586	-304
257	1762	-609
258	1938	-915
259	1586	305
260	1762	610
261	1938	916
262	493	1221
263	-492	1221
264	1057	1221
265	1410	1221
266	1762	1221
267	529	1526
268	352	1831
269	176	2136
270	-809	1038
271	-1303	183
272	-528	1526
273	-351	1831
274	-175	2136
275	-1056	1221
276	-1409	1221
277	-1761	1221
278	-1303	-182
279	-809	-1037
280	-1585	305
281	-1761	610
282	-1937	916
283	-1585	-304
284	-1761	-609
285	-1937	-915
286	-492	-1220
287	493	-1220
288	-1056	-1220
289	-1409	-1220
290	-1761	-1220
291	-528	-1525
292	-351	-1830
293	-175	-2135
294	810	-1037
295	1304	-182
296	529	-1525
297	352	-1830
298	176	-2135
299	1057	-1220
300	1410	-1220
301	1762	-1220
302	1762	0
303	881	1526
304	-880	1526
305	-1761	0
306	-880	-1525
307	881	-1525
308	2643	1526
309	0	3052
310	-2642	1526
311	-2642	-1525
312	0	-3051
313	2643	-1525
314	1630	229
315	1013	1297
316	1982	-380
317	2202	-762
318	2423	-1143
319	1982	381
320	2202	763
321	2423	1144
322	617	1526
323	-616	1526
324	1321	1526
325	1762	1526
326	2202	1526
327	661	1907
328	440	2289
329	220	2670
330	-1012	1297
331	-1629	229
332	-660	1907
333	-439	2289
334	-219	2670
335	-1320	1526
336	-1761	1526
337	-2201	1526
338	-1629	-228
339	-1012	-1296
340	-1981	381
341	-2201	763
342	-2422	1144
343	-1981	-380
344	-2201	-762
345	-2422	-1143
346	-616	-1525
347	617	-1525
348	-1320	-1525
349	-1761	-1525
350	-2201	-1525
351	-660	-1906
352	-439	-2288
353	-219	-2669
354	1013	-1296
355	1630	-228
356	661	-1906
357	440	-2288
358	220	-2669
359	1321	-1525
360	1762	-1525
361	2202	-1525
362	2202	0
363	1101	1907
364	-1100	1907
365	-2201	0
366	-1100	-1906
367	1101	-1906
368	3304	1907
369	0	3815
370	-3303	1907
371	-3303	-1906
372	0	-3814
373	3304	-1906
374	2037	286
375	1266	1621
376	2478	-476
377	2753	-953
378	3028	-1430
379	2478	477
380	2753	954
381	3028	1431
382	771	1907
383	-770	1907
384	1652	1907
385	2202	1907
386	2753	1907
387	826	2384
388	551	2861
389	275	3338
390	-1265	1621
391	-2036	286
392	-825	2384
393	-550	2861
394	-274	3338
395	-1651	1907
396	-2201	1907
397	-2752	1907
398	-2036	-285
399	-1265	-1620
400	-2477	477
401	-2752	954
402	-3027	1431
403	-2477	-476
404	-2752	-953
405	-3027	-1430
406	-770	-1906
407	771	-1906
408	-1651	-1906
409	-2201	-1906
410	-2752	-1906
411	-825	-2383
412	-550	-2860
413	-274	-3337
414	1266	-1620
415	2037	-285
416	826	-2383
417	551	-2860
418	275	-3337
419	1652	-1906
420	2202	-1906
421	2753	-1906
DEMAND_SECTION
1	0
2	40
3	40
4	40
5	40
6	40
7	40
8	40
9	40
10	40
11	40
12	40
13	40
14	10
15	10
16	10
17	20
18	10
19	10
20	20
21	10
22	10
23	10
24	10
25	20
26	10
27	10
28	20
29	10
30	10
31	10
32	10
33	20
34	10
35	10
36	20
37	10
38	10
39	10
40	10
41	20
42	10
43	10
44	20
45	10
46	10
47	10
48	10
49	20
50	10
51	10
52	20
53	10
54	10
55	10
56	10
57	20
58	10
59	10
60	20
61	10
62	40
63	40
64	40
65	40
66	40
67	40
68	40
69	40
70	40
71	40
72	40
73	40
74	10
75	10
76	10
77	20
78	10
79	10
80	20
81	10
82	10
83	10
84	10
85	20
86	10
87	10
88	20
89	10
90	10
91	10
92	10
93	20
94	10
95	10
96	20
97	10
98	10
99	10
100	10
101	20
102	10
103	10
104	20
105	10
106	10
107	10
108	10
109	20
110	10
111	10
112	20
113	10
114	10
115	10
116	10
117	20
118	10
119	10
120	20
121	10
122	40
123	40
124	40
125	40
126	40
127	40
128	40
129	40
130	40
131	40
132	40
133	40
134	10
135	10
136	10
137	20
138	10
139	10
140	20
141	10
142	10
143	10
144	10
145	20
146	10
147	10
148	20
149	10
150	10
151	10
152	10
153	20
154	10
155	10
156	20
157	10
158	10
159	10
160	10
161	20
162	10
163	10
164	20
165	10
166	10
167	10
168	10
169	20
170	10
171	10
172	20
173	10
174	10
175	10
176	10
177	20
178	10
179	10
180	20
181	10
182	40
183	40
184	40
185	40
186	40
187	40
188	40
189	40
190	40
191	40
192	40
193	40
194	10
195	10
196	10
197	20
198	10
199	10
200	20
201	10
202	10
203	10
204	10
205	20
206	10
207	10
208	20
209	10
210	10
211	10
212	10
213	20
214	10
215	10
216	20
217	10
218	10
219	10
220	10
221	20
222	10
223	10
224	20
225	10
226	10
227	10
228	10
229	20
230	10
231	10
232	20
233	10
234	10
235	10
236	10
237	20
238	10
239	10
240	20
241	10
242	40
243	40
244	40
245	40
246	40
247	40
248	40
249	40
250	40
251	40
252	40
253	40
254	10
255	10
256	10
257	20
258	10
259	10
260	20
261	10
262	10
263	10
264	10
265	20
266	10
267	10
268	20
269	10
270	10
271	10
272	10
273	20
274	10
275	10
276	20
277	10
278	10
279	10
280	10
281	20
282	10
283	10
284	20
285	10
286	10
287	10
288	10
289	20
290	10
291	10
292	20
293	10
294	10
295	10
296	10
297	20
298	10
299	10
300	20
301	10
302	40
303	40
304	40
305	40
306	40
307	40
308	40
309	40
310	40
311	40
312	40
313	40
314	10
315	10
316	10
317	20
318	10
319	10
320	20
321	10
322	10
323	10
324	10
325	20
326	10
327	10
328	20
329	10
330	10
331	10
332	10
333	20
334	10
335	10
336	20
337	10
338	10
339	10
340	10
341	20
342	10
343	10
344	20
345	10
346	10
347	10
348	10
349	20
350	10
351	10
352	20
353	10
354	10
355	10
356	10
357	20
358	10
359	10
360	20
361	10
362	40
363	40
364	40
365	40
366	40
367	40
368	40
369	40
370	40
371	40
372	40
373	40
374	10
375	10
376	10
377	20
378	10
379	10
380	20
381	10
382	10
383	10
384	10
385	20
386	10
387	10
388	20
389	10
390	10
391	10
392	10
393	20
394	10
395	10
396	20
397	10
398	10
399	10
400	10
401	20
402	10
403	10
404	20
405	10
406	10
407	10
408	10
409	20
410	10
411	10
412	20
413	10
414	10
415	10
416	10
417	20
418	10
419	10
420	20
421	10
DEPOT_SECTION
1
-1
EOF
