experiment/data/lkh-res/Vrp-Set-Golden-n421/Vrp-Set-Golden-n421-lkh/0.lkh1.tour
NAME : 0.183398.tour
COMMENT : Length = 183398
COMMENT : Found by LKH-3 [Keld Helsgaun] Tue Apr  9 02:16:33 2024
TYPE : TOUR
DIMENSION : 458
TOUR_SECTION
1
38
98
43
44
103
158
125
65
5
433
208
268
269
328
387
388
329
249
274
273
213
446
224
283
338
305
365
398
343
284
225
165
105
45
428
54
114
59
60
61
120
179
234
187
227
176
117
57
425
79
139
194
199
254
314
374
362
302
355
256
197
138
441
191
285
344
403
404
345
251
290
289
229
451
41
42
10
102
161
220
271
245
278
223
164
449
50
11
104
163
218
185
211
160
151
100
91
40
31
424
47
56
107
116
167
127
174
119
67
7
436
141
201
320
321
308
386
368
381
380
379
319
259
454
20
80
81
140
68
146
145
86
8
21
447
188
266
325
384
385
326
248
261
260
200
438
215
270
275
330
304
364
390
335
276
216
97
37
429
55
2
16
115
62
122
134
74
19
14
427
331
340
391
400
401
402
370
397
310
342
341
222
448
76
175
136
235
182
242
295
196
137
77
17
423
46
51
106
111
166
126
66
99
6
39
422
28
29
9
89
148
207
202
147
88
87
142
82
27
22
426
23
32
83
92
143
124
64
90
35
4
30
432
228
348
399
408
409
410
371
405
311
350
349
230
434
316
415
376
377
378
373
421
313
318
317
257
450
323
383
392
393
394
369
389
309
334
333
332
272
437
3
63
123
135
84
85
26
25
24
443
95
150
155
210
184
244
263
212
203
152
93
33
444
153
154
129
214
189
209
149
69
94
34
431
13
121
180
240
133
181
73
78
18
458
239
294
299
354
359
414
367
307
247
287
236
442
49
109
110
71
131
170
169
168
219
108
48
439
296
356
357
358
312
413
372
418
417
416
407
347
435
159
186
279
288
339
306
246
286
231
226
171
440
52
53
112
172
232
173
72
118
12
58
445
178
297
298
252
353
412
411
366
406
351
346
291
456
198
193
258
253
361
420
419
360
301
300
241
457
177
237
238
192
293
352
292
233
132
113
455
280
281
282
250
337
396
395
336
277
190
217
453
101
70
162
221
130
157
156
96
36
430
15
75
144
195
204
255
264
315
303
243
183
452
262
267
322
327
382
363
375
324
265
206
128
205
-1
EOF
